NAME: tsp20-9
TYPE: TSP
DIMENSION: 20
EDGE_WEIGHT_TYPE: EUC_2D
NODE_COORD_SECTION
0 51 74
1 63 71
2 56 21
3 21 43
4 64 37
5 73 74
6 61 10
7 55 3
8 59 52
9 31 33
10 58 14
11 9 65
12 53 40
13 8 45
14 49 13
15 20 91
16 55 67
17 16 88
18 75 14
19 42 99
EOF